NAME : traveling-santa-2018-prime-paths.29398.tour
COMMENT : Length = 29398
COMMENT : Found by LKH [Keld Helsgaun] Sun Jun 12 19:59:52 2022
TYPE : TOUR
DIMENSION : 100
TOUR_SECTION
1
72
4
49
9
76
20
61
12
21
8
53
35
92
42
5
45
16
43
34
52
17
44
24
60
65
66
69
98
7
74
83
79
27
40
96
54
37
67
71
10
78
63
84
28
89
38
13
86
18
97
81
31
15
70
51
87
6
2
64
82
46
88
47
26
100
99
73
11
57
85
22
58
94
30
19
48
25
33
56
90
91
93
55
50
29
32
39
41
77
36
59
95
75
68
3
62
14
23
80
-1
EOF
